p tw 75 368
1 30
1 32
1 41
1 43
1 50
1 57
1 61
1 62
1 68
2 26
2 39
2 40
2 41
2 51
2 52
2 54
2 57
2 64
2 67
2 73
11 29
11 30
11 44
11 47
11 49
11 51
11 55
11 56
11 59
11 63
11 64
11 69
11 71
12 26
12 30
12 32
12 33
12 37
12 39
12 45
12 50
12 52
12 53
12 55
12 61
12 62
12 68
12 72
12 73
12 74
13 29
13 42
13 44
13 45
13 47
13 49
13 54
13 57
13 61
13 66
13 68
13 69
13 70
13 71
14 28
14 32
14 41
14 42
14 45
14 47
14 54
14 57
14 65
14 73
15 29
15 32
15 38
15 45
15 48
15 53
15 59
15 60
15 64
15 73
16 27
16 29
16 30
16 33
16 38
16 40
16 49
16 61
16 63
16 68
16 69
16 72
16 74
16 75
17 28
17 30
17 33
17 37
17 39
17 40
17 42
17 46
17 48
17 50
17 54
17 59
17 61
17 63
17 65
17 70
17 71
17 74
18 27
18 30
18 34
18 37
18 45
18 47
18 48
18 54
18 55
18 56
18 59
18 60
18 62
18 66
18 70
18 71
18 73
18 74
18 75
19 26
19 28
19 29
19 32
19 36
19 37
19 38
19 46
19 47
19 63
19 64
19 68
19 70
19 71
20 26
20 27
20 32
20 33
20 36
20 37
20 40
20 43
20 46
20 47
20 50
20 51
20 54
20 62
20 64
20 69
20 70
20 71
20 75
3 26
3 27
3 34
3 35
3 36
3 38
3 43
3 45
3 49
3 53
3 56
3 74
21 26
21 33
21 36
21 37
21 39
21 43
21 45
21 47
21 49
21 51
21 52
21 56
21 57
21 59
21 70
21 73
21 75
22 26
22 30
22 31
22 32
22 34
22 35
22 40
22 42
22 47
22 49
22 51
22 52
22 53
22 54
22 55
22 58
22 60
22 61
22 63
22 64
22 65
22 69
23 26
23 28
23 32
23 34
23 41
23 46
23 51
23 52
23 54
23 58
23 61
23 62
23 67
23 68
23 71
23 73
23 74
24 27
24 31
24 32
24 33
24 39
24 46
24 48
24 57
24 60
24 62
24 63
24 68
24 73
24 74
25 26
25 30
25 31
25 32
25 37
25 43
25 49
25 56
25 61
25 68
25 72
25 75
4 26
4 28
4 29
4 30
4 38
4 41
4 52
4 55
4 56
4 63
4 65
4 66
4 71
4 74
5 26
5 30
5 33
5 36
5 38
5 39
5 40
5 53
5 57
5 66
5 67
5 71
6 29
6 37
6 43
6 44
6 50
6 52
6 59
6 62
6 63
6 68
6 69
6 70
6 73
6 74
7 26
7 28
7 30
7 36
7 41
7 43
7 45
7 50
7 66
8 27
8 33
8 34
8 35
8 36
8 37
8 38
8 41
8 42
8 45
8 53
8 54
8 58
8 59
8 62
8 65
8 71
9 30
9 33
9 37
9 39
9 41
9 42
9 44
9 46
9 47
9 56
9 57
9 58
9 63
9 65
9 72
9 73
9 74
9 75
10 27
10 28
10 30
10 31
10 32
10 34
10 37
10 38
10 39
10 41
10 43
10 45
10 46
10 48
10 53
10 54
10 60
10 61
10 69
10 71
10 72
10 74
